nohup: ignoring input
2024-07-23 14:29:33.920889: I external/local_xla/xla/tsl/cuda/cudart_stub.cc:32] Could not find cuda drivers on your machine, GPU will not be used.
2024-07-23 14:29:35.017574: I external/local_xla/xla/tsl/cuda/cudart_stub.cc:32] Could not find cuda drivers on your machine, GPU will not be used.
2024-07-23 14:29:35.613973: E external/local_xla/xla/stream_executor/cuda/cuda_fft.cc:485] Unable to register cuFFT factory: Attempting to register factory for plugin cuFFT when one has already been registered
2024-07-23 14:29:36.090202: E external/local_xla/xla/stream_executor/cuda/cuda_dnn.cc:8454] Unable to register cuDNN factory: Attempting to register factory for plugin cuDNN when one has already been registered
2024-07-23 14:29:36.248724: E external/local_xla/xla/stream_executor/cuda/cuda_blas.cc:1452] Unable to register cuBLAS factory: Attempting to register factory for plugin cuBLAS when one has already been registered
2024-07-23 14:29:37.335546: I tensorflow/core/platform/cpu_feature_guard.cc:210] This TensorFlow binary is optimized to use available CPU instructions in performance-critical operations.
To enable the following instructions: AVX2 FMA, in other operations, rebuild TensorFlow with the appropriate compiler flags.
2024-07-23 14:29:47.529857: W tensorflow/compiler/tf2tensorrt/utils/py_utils.cc:38] TF-TRT Warning: Could not find TensorRT
923
no warm start
Set parameter TokenServer to value "vm-gurobi-license.doc.ic.ac.uk"
REGULARISATION L1
Gurobi Optimizer version 11.0.2 build v11.0.2rc0 (linux64 - "Ubuntu 22.04.4 LTS")

CPU model: AMD Ryzen 7 5700X 8-Core Processor, instruction set [SSE2|AVX|AVX2]
Thread count: 8 physical cores, 16 logical processors, using up to 16 threads

Optimize a model with 796 rows, 600 columns and 1970 nonzeros
Model fingerprint: 0x814a24c8
Model has 70 quadratic constraints
Variable types: 502 continuous, 98 integer (98 binary)
Coefficient statistics:
  Matrix range     [3e-03, 6e+01]
  QMatrix range    [1e+00, 1e+00]
  QLMatrix range   [1e+00, 1e+00]
  Objective range  [1e-04, 1e+00]
  Bounds range     [1e+00, 1e+00]
  RHS range        [1e+00, 6e+01]
Presolve removed 231 rows and 63 columns
Presolve time: 0.04s
Presolved: 1755 rows, 817 columns, 4896 nonzeros
Presolved model has 280 bilinear constraint(s)

Solving non-convex MIQCP

Variable types: 719 continuous, 98 integer (98 binary)
Found heuristic solution: objective 70.0000000

Root relaxation: objective 6.300000e+01, 451 iterations, 0.00 seconds (0.00 work units)

    Nodes    |    Current Node    |     Objective Bounds      |     Work
 Expl Unexpl |  Obj  Depth IntInf | Incumbent    BestBd   Gap | It/Node Time

     0     0   63.00000    0    7   70.00000   63.00000  10.0%     -    0s
     0     0   63.00000    0  110   70.00000   63.00000  10.0%     -    0s
     0     0   63.00000    0   79   70.00000   63.00000  10.0%     -    0s
     0     0   63.00000    0   80   70.00000   63.00000  10.0%     -    0s
H    0     0                      69.3982409   63.00000  9.22%     -    0s
     0     0   63.00000    0   78   69.39824   63.00000  9.22%     -    0s
H    0     0                      69.0003869   63.00000  8.70%     -    0s
     0     0   63.00000    0   78   69.00039   63.00000  8.70%     -    0s
     0     0   63.00000    0   80   69.00039   63.00000  8.70%     -    0s
     0     0   63.00001    0   80   69.00039   63.00001  8.70%     -    0s
     0     2   63.00001    0   89   69.00039   63.00001  8.70%     -    0s
H   31    40                      69.0002279   63.00002  8.70%  18.0    0s
H   32    40                      68.3655888   63.00002  7.85%  18.0    0s
H   95   110                      68.3647854   63.00002  7.85%  17.1    0s
H  172   287                      68.0019019   63.00002  7.36%  18.5    0s
H  205   287                      67.7274701   63.00002  6.98%  18.6    0s
H  297   457                      67.4172494   63.00002  6.55%  22.5    0s
H  370   457                      65.3393384   63.00002  3.58%  24.3    0s
H  465  1127                      65.0018063   63.00002  3.08%  25.2    0s
H 1522  1898                      64.8130013   63.00002  2.80%  35.1    0s
H 1734  1870                      64.5815105   63.00002  2.45%  31.5    0s
H 1755  1810                      64.1976645   63.00002  1.87%  33.6    0s
H 1903  1790                      64.0247159   63.00002  1.60%  37.1    0s
* 1909  2322             215      63.9885645   63.00002  1.54%  37.1    0s
H 1930  2194                      63.9639147   63.00002  1.51%  36.7    0s
H 2410  2086                      63.6678376   63.00002  1.05%  34.8    0s
H 2624  2648                      63.5581935   63.00002  0.88%  33.8    0s
H 3129  2633                      63.4383810   63.00002  0.69%  33.8    0s
H 3303  2588                      63.2108335   63.00002  0.33%  33.5    1s
H 3308  2462                      63.2107938   63.00002  0.33%  33.4    1s
H 3311  2341                      63.0017060   63.00002  0.00%  33.4    1s

Cutting planes:
  MIR: 6
  RLT: 79

Explored 3311 nodes (112313 simplex iterations) in 1.46 seconds (2.18 work units)
Thread count was 16 (of 16 available processors)

Solution count 10: 63.0017 63.2108 63.2108 ... 64.1977

Optimal solution found (tolerance 1.00e-04)
Best objective 6.300170597802e+01, best bound 6.300002099558e+01, gap 0.0027%
Average accuracy over 1 experiments with 7 training points: 1.0
warm start
Gurobi Optimizer version 11.0.2 build v11.0.2rc0 (linux64 - "Ubuntu 22.04.4 LTS")

CPU model: AMD Ryzen 7 5700X 8-Core Processor, instruction set [SSE2|AVX|AVX2]
Thread count: 8 physical cores, 16 logical processors, using up to 16 threads

Optimize a model with 960 rows, 742 columns and 2568 nonzeros
Model fingerprint: 0x4546556e
Model has 120 quadratic constraints
Variable types: 574 continuous, 168 integer (168 binary)
Coefficient statistics:
  Matrix range     [3e-03, 6e+01]
  QMatrix range    [1e+00, 1e+00]
  QLMatrix range   [1e+00, 1e+00]
  Objective range  [1e+00, 1e+00]
  Bounds range     [1e+00, 1e+00]
  RHS range        [1e+00, 6e+01]

Warning: Completing partial solution with 168 unfixed non-continuous variables out of 168
User MIP start produced solution with objective 114.981 (0.00s)
Loaded user MIP start with objective 114.981

Presolve removed 404 rows and 116 columns
Presolve time: 0.00s
Presolved: 2596 rows, 1106 columns, 7440 nonzeros
Presolved model has 480 bilinear constraint(s)

Solving non-convex MIQCP

Variable types: 938 continuous, 168 integer (168 binary)

Root relaxation: objective 1.080000e+02, 667 iterations, 0.00 seconds (0.01 work units)

    Nodes    |    Current Node    |     Objective Bounds      |     Work
 Expl Unexpl |  Obj  Depth IntInf | Incumbent    BestBd   Gap | It/Node Time

     0     0  108.00000    0  123  114.98070  108.00000  6.07%     -    0s
H    0     0                     111.0000000  108.00000  2.70%     -    0s
     0     0  108.00000    0  123  111.00000  108.00000  2.70%     -    0s
H    0     2                     110.0000000  108.00000  1.82%     -    0s
     0     2  108.00000    0  123  110.00000  108.00000  1.82%     -    0s
H  523   577                     109.7335732  108.00000  1.58%  21.0    0s
H 1162  1356                     109.4379464  108.00000  1.31%  24.0    0s
H 1162  1354                     109.2757053  108.00000  1.17%  24.0    0s
H 1251  1210                     108.8601971  108.00000  0.79%  24.7    0s
H 1471  1427                     108.3963409  108.00000  0.37%  28.0    0s
H 1557   737                     108.0000000  108.00000  0.00%  29.6    0s

Explored 1834 nodes (58701 simplex iterations) in 0.52 seconds (0.93 work units)
Thread count was 16 (of 16 available processors)

Solution count 9: 108 108.396 108.86 ... 114.981

Optimal solution found (tolerance 1.00e-04)
Best objective 1.080000000000e+02, best bound 1.080000000000e+02, gap 0.0000%
Average accuracy over 1 experiments with 12 training points: 1.0
warm start
Gurobi Optimizer version 11.0.2 build v11.0.2rc0 (linux64 - "Ubuntu 22.04.4 LTS")

CPU model: AMD Ryzen 7 5700X 8-Core Processor, instruction set [SSE2|AVX|AVX2]
Thread count: 8 physical cores, 16 logical processors, using up to 16 threads

Optimize a model with 1360 rows, 1002 columns and 3638 nonzeros
Model fingerprint: 0xc5694943
Model has 170 quadratic constraints
Variable types: 764 continuous, 238 integer (238 binary)
Coefficient statistics:
  Matrix range     [3e-03, 6e+01]
  QMatrix range    [1e+00, 1e+00]
  QLMatrix range   [1e+00, 1e+00]
  Objective range  [1e+00, 1e+00]
  Bounds range     [1e+00, 1e+00]
  RHS range        [1e+00, 6e+01]

Warning: Completing partial solution with 238 unfixed non-continuous variables out of 238
User MIP start produced solution with objective 153 (0.00s)
Loaded user MIP start with objective 153

Presolve removed 640 rows and 215 columns
Presolve time: 0.00s
Presolved: 3610 rows, 1467 columns, 10121 nonzeros
Presolved model has 680 bilinear constraint(s)

Solving non-convex MIQCP

Variable types: 1246 continuous, 221 integer (221 binary)

Explored 0 nodes (0 simplex iterations) in 0.01 seconds (0.01 work units)
Thread count was 16 (of 16 available processors)

Solution count 1: 153 

Optimal solution found (tolerance 1.00e-04)
Best objective 1.530000000000e+02, best bound 1.530000000000e+02, gap 0.0000%
Average accuracy over 1 experiments with 17 training points: 1.0
warm start
Gurobi Optimizer version 11.0.2 build v11.0.2rc0 (linux64 - "Ubuntu 22.04.4 LTS")

CPU model: AMD Ryzen 7 5700X 8-Core Processor, instruction set [SSE2|AVX|AVX2]
Thread count: 8 physical cores, 16 logical processors, using up to 16 threads

Optimize a model with 1760 rows, 1262 columns and 4708 nonzeros
Model fingerprint: 0x54438379
Model has 220 quadratic constraints
Variable types: 954 continuous, 308 integer (308 binary)
Coefficient statistics:
  Matrix range     [3e-03, 6e+01]
  QMatrix range    [1e+00, 1e+00]
  QLMatrix range   [1e+00, 1e+00]
  Objective range  [1e+00, 1e+00]
  Bounds range     [1e+00, 1e+00]
  RHS range        [1e+00, 6e+01]

Warning: Completing partial solution with 308 unfixed non-continuous variables out of 308
User MIP start produced solution with objective 198 (0.00s)
Loaded user MIP start with objective 198

Presolve removed 840 rows and 290 columns
Presolve time: 0.01s
Presolved: 4660 rows, 1852 columns, 12886 nonzeros
Presolved model has 880 bilinear constraint(s)

Solving non-convex MIQCP

Variable types: 1566 continuous, 286 integer (286 binary)

Explored 0 nodes (0 simplex iterations) in 0.01 seconds (0.02 work units)
Thread count was 16 (of 16 available processors)

Solution count 1: 198 

Optimal solution found (tolerance 1.00e-04)
Best objective 1.980000000000e+02, best bound 1.980000000000e+02, gap 0.0000%
Average accuracy over 1 experiments with 22 training points: 1.0
warm start
Gurobi Optimizer version 11.0.2 build v11.0.2rc0 (linux64 - "Ubuntu 22.04.4 LTS")

CPU model: AMD Ryzen 7 5700X 8-Core Processor, instruction set [SSE2|AVX|AVX2]
Thread count: 8 physical cores, 16 logical processors, using up to 16 threads

Optimize a model with 2160 rows, 1522 columns and 5778 nonzeros
Model fingerprint: 0x5e93bbff
Model has 270 quadratic constraints
Variable types: 1144 continuous, 378 integer (378 binary)
Coefficient statistics:
  Matrix range     [3e-03, 6e+01]
  QMatrix range    [1e+00, 1e+00]
  QLMatrix range   [1e+00, 1e+00]
  Objective range  [1e+00, 1e+00]
  Bounds range     [1e+00, 1e+00]
  RHS range        [1e+00, 6e+01]

Warning: Completing partial solution with 378 unfixed non-continuous variables out of 378
User MIP start produced solution with objective 243 (0.00s)
Loaded user MIP start with objective 243

Presolve removed 1040 rows and 365 columns
Presolve time: 0.01s
Presolved: 5710 rows, 2237 columns, 15651 nonzeros
Presolved model has 1080 bilinear constraint(s)

Solving non-convex MIQCP

Variable types: 1886 continuous, 351 integer (351 binary)

Explored 0 nodes (0 simplex iterations) in 0.02 seconds (0.02 work units)
Thread count was 16 (of 16 available processors)

Solution count 1: 243 

Optimal solution found (tolerance 1.00e-04)
Best objective 2.430000000000e+02, best bound 2.430000000000e+02, gap 0.0000%
Average accuracy over 1 experiments with 27 training points: 1.0
warm start
Gurobi Optimizer version 11.0.2 build v11.0.2rc0 (linux64 - "Ubuntu 22.04.4 LTS")

CPU model: AMD Ryzen 7 5700X 8-Core Processor, instruction set [SSE2|AVX|AVX2]
Thread count: 8 physical cores, 16 logical processors, using up to 16 threads

Optimize a model with 2560 rows, 1782 columns and 6848 nonzeros
Model fingerprint: 0x9b863f29
Model has 320 quadratic constraints
Variable types: 1334 continuous, 448 integer (448 binary)
Coefficient statistics:
  Matrix range     [3e-03, 6e+01]
  QMatrix range    [1e+00, 1e+00]
  QLMatrix range   [1e+00, 1e+00]
  Objective range  [1e+00, 1e+00]
  Bounds range     [1e+00, 1e+00]
  RHS range        [1e+00, 6e+01]

Warning: Completing partial solution with 448 unfixed non-continuous variables out of 448
User MIP start produced solution with objective 288 (0.00s)
Loaded user MIP start with objective 288

Presolve removed 1240 rows and 440 columns
Presolve time: 0.01s
Presolved: 6760 rows, 2622 columns, 18416 nonzeros
Presolved model has 1280 bilinear constraint(s)

Solving non-convex MIQCP

Variable types: 2206 continuous, 416 integer (416 binary)

Explored 0 nodes (0 simplex iterations) in 0.02 seconds (0.03 work units)
Thread count was 16 (of 16 available processors)

Solution count 1: 288 

Optimal solution found (tolerance 1.00e-04)
Best objective 2.880000000000e+02, best bound 2.880000000000e+02, gap 0.0000%
Average accuracy over 1 experiments with 32 training points: 1.0
warm start
Gurobi Optimizer version 11.0.2 build v11.0.2rc0 (linux64 - "Ubuntu 22.04.4 LTS")

CPU model: AMD Ryzen 7 5700X 8-Core Processor, instruction set [SSE2|AVX|AVX2]
Thread count: 8 physical cores, 16 logical processors, using up to 16 threads

Optimize a model with 2960 rows, 2042 columns and 7918 nonzeros
Model fingerprint: 0x19c23171
Model has 370 quadratic constraints
Variable types: 1524 continuous, 518 integer (518 binary)
Coefficient statistics:
  Matrix range     [3e-03, 6e+01]
  QMatrix range    [1e+00, 1e+00]
  QLMatrix range   [1e+00, 1e+00]
  Objective range  [1e+00, 1e+00]
  Bounds range     [1e+00, 1e+00]
  RHS range        [1e+00, 6e+01]

Warning: Completing partial solution with 518 unfixed non-continuous variables out of 518
User MIP start produced solution with objective 333 (0.00s)
Loaded user MIP start with objective 333

Presolve removed 1440 rows and 515 columns
Presolve time: 0.01s
Presolved: 7810 rows, 3007 columns, 21181 nonzeros
Presolved model has 1480 bilinear constraint(s)

Solving non-convex MIQCP

Variable types: 2526 continuous, 481 integer (481 binary)

Explored 0 nodes (0 simplex iterations) in 0.02 seconds (0.03 work units)
Thread count was 16 (of 16 available processors)

Solution count 1: 333 

Optimal solution found (tolerance 1.00e-04)
Best objective 3.330000000000e+02, best bound 3.330000000000e+02, gap 0.0000%
Average accuracy over 1 experiments with 37 training points: 1.0
warm start
Gurobi Optimizer version 11.0.2 build v11.0.2rc0 (linux64 - "Ubuntu 22.04.4 LTS")

CPU model: AMD Ryzen 7 5700X 8-Core Processor, instruction set [SSE2|AVX|AVX2]
Thread count: 8 physical cores, 16 logical processors, using up to 16 threads

Optimize a model with 3360 rows, 2302 columns and 8988 nonzeros
Model fingerprint: 0xfc1d3d20
Model has 420 quadratic constraints
Variable types: 1714 continuous, 588 integer (588 binary)
Coefficient statistics:
  Matrix range     [3e-03, 6e+01]
  QMatrix range    [1e+00, 1e+00]
  QLMatrix range   [1e+00, 1e+00]
  Objective range  [1e+00, 1e+00]
  Bounds range     [1e+00, 1e+00]
  RHS range        [1e+00, 6e+01]

Warning: Completing partial solution with 588 unfixed non-continuous variables out of 588
User MIP start produced solution with objective 378 (0.00s)
Loaded user MIP start with objective 378

Presolve removed 1640 rows and 590 columns
Presolve time: 0.01s
Presolved: 8860 rows, 3392 columns, 23946 nonzeros
Presolved model has 1680 bilinear constraint(s)

Solving non-convex MIQCP

Variable types: 2846 continuous, 546 integer (546 binary)

Explored 0 nodes (0 simplex iterations) in 0.03 seconds (0.03 work units)
Thread count was 16 (of 16 available processors)

Solution count 1: 378 

Optimal solution found (tolerance 1.00e-04)
Best objective 3.780000000000e+02, best bound 3.780000000000e+02, gap 0.0000%
Average accuracy over 1 experiments with 42 training points: 1.0
warm start
Gurobi Optimizer version 11.0.2 build v11.0.2rc0 (linux64 - "Ubuntu 22.04.4 LTS")

CPU model: AMD Ryzen 7 5700X 8-Core Processor, instruction set [SSE2|AVX|AVX2]
Thread count: 8 physical cores, 16 logical processors, using up to 16 threads

Optimize a model with 3760 rows, 2562 columns and 10058 nonzeros
Model fingerprint: 0x76f6d047
Model has 470 quadratic constraints
Variable types: 1904 continuous, 658 integer (658 binary)
Coefficient statistics:
  Matrix range     [3e-03, 6e+01]
  QMatrix range    [1e+00, 1e+00]
  QLMatrix range   [1e+00, 1e+00]
  Objective range  [1e+00, 1e+00]
  Bounds range     [1e+00, 1e+00]
  RHS range        [1e+00, 6e+01]

Warning: Completing partial solution with 658 unfixed non-continuous variables out of 658
User MIP start produced solution with objective 423 (0.00s)
Loaded user MIP start with objective 423

Presolve removed 1840 rows and 665 columns
Presolve time: 0.01s
Presolved: 9910 rows, 3777 columns, 26711 nonzeros
Presolved model has 1880 bilinear constraint(s)

Solving non-convex MIQCP

Variable types: 3166 continuous, 611 integer (611 binary)

Explored 0 nodes (0 simplex iterations) in 0.03 seconds (0.04 work units)
Thread count was 16 (of 16 available processors)

Solution count 1: 423 

Optimal solution found (tolerance 1.00e-04)
Best objective 4.230000000000e+02, best bound 4.230000000000e+02, gap 0.0000%
Average accuracy over 1 experiments with 47 training points: 1.0
warm start
Gurobi Optimizer version 11.0.2 build v11.0.2rc0 (linux64 - "Ubuntu 22.04.4 LTS")

CPU model: AMD Ryzen 7 5700X 8-Core Processor, instruction set [SSE2|AVX|AVX2]
Thread count: 8 physical cores, 16 logical processors, using up to 16 threads

Optimize a model with 4160 rows, 2822 columns and 11128 nonzeros
Model fingerprint: 0x1d706957
Model has 520 quadratic constraints
Variable types: 2094 continuous, 728 integer (728 binary)
Coefficient statistics:
  Matrix range     [3e-03, 6e+01]
  QMatrix range    [1e+00, 1e+00]
  QLMatrix range   [1e+00, 1e+00]
  Objective range  [1e+00, 1e+00]
  Bounds range     [1e+00, 1e+00]
  RHS range        [1e+00, 6e+01]

Warning: Completing partial solution with 728 unfixed non-continuous variables out of 728
User MIP start produced solution with objective 468 (0.00s)
Loaded user MIP start with objective 468

Presolve removed 2040 rows and 740 columns
Presolve time: 0.01s
Presolved: 10960 rows, 4162 columns, 29476 nonzeros
Presolved model has 2080 bilinear constraint(s)

Solving non-convex MIQCP

Variable types: 3486 continuous, 676 integer (676 binary)

Explored 0 nodes (0 simplex iterations) in 0.03 seconds (0.04 work units)
Thread count was 16 (of 16 available processors)

Solution count 1: 468 

Optimal solution found (tolerance 1.00e-04)
Best objective 4.680000000000e+02, best bound 4.680000000000e+02, gap 0.0000%
Average accuracy over 1 experiments with 52 training points: 1.0
warm start
Gurobi Optimizer version 11.0.2 build v11.0.2rc0 (linux64 - "Ubuntu 22.04.4 LTS")

CPU model: AMD Ryzen 7 5700X 8-Core Processor, instruction set [SSE2|AVX|AVX2]
Thread count: 8 physical cores, 16 logical processors, using up to 16 threads

Optimize a model with 4560 rows, 3082 columns and 12198 nonzeros
Model fingerprint: 0xa7b3b9ff
Model has 570 quadratic constraints
Variable types: 2284 continuous, 798 integer (798 binary)
Coefficient statistics:
  Matrix range     [3e-03, 6e+01]
  QMatrix range    [1e+00, 1e+00]
  QLMatrix range   [1e+00, 1e+00]
  Objective range  [1e+00, 1e+00]
  Bounds range     [1e+00, 1e+00]
  RHS range        [1e+00, 6e+01]

Warning: Completing partial solution with 798 unfixed non-continuous variables out of 798
User MIP start produced solution with objective 513 (0.00s)
Loaded user MIP start with objective 513

Presolve removed 2240 rows and 815 columns
Presolve time: 0.01s
Presolved: 12010 rows, 4547 columns, 32241 nonzeros
Presolved model has 2280 bilinear constraint(s)

Solving non-convex MIQCP

Variable types: 3806 continuous, 741 integer (741 binary)

Explored 0 nodes (0 simplex iterations) in 0.03 seconds (0.05 work units)
Thread count was 16 (of 16 available processors)

Solution count 1: 513 

Optimal solution found (tolerance 1.00e-04)
Best objective 5.130000000000e+02, best bound 5.130000000000e+02, gap 0.0000%
Average accuracy over 1 experiments with 57 training points: 1.0
